150 1087
1 13 -1
1 16 -1
1 18 -1
1 40 1
1 41 -1
1 69 -1
1 73 -1
1 85 1
1 100 1
1 103 1
1 114 1
1 120 -1
1 124 -1
1 133 1
1 150 1
2 16 -1
2 39 1
2 51 1
2 55 -1
2 61 -1
2 67 1
2 77 -1
2 83 1
2 115 -1
2 147 1
2 149 -1
3 5 1
3 11 -1
3 12 -1
3 37 1
3 40 1
3 62 1
3 68 -1
3 82 -1
3 84 -1
3 86 1
3 91 1
3 112 1
3 134 1
4 14 1
4 17 1
4 30 -1
4 39 1
4 44 1
4 60 1
4 77 1
4 89 1
4 93 1
4 94 1
4 98 -1
4 104 -1
4 125 1
4 126 -1
4 133 1
4 135 -1
4 145 -1
5 6 1
5 23 -1
5 82 -1
5 91 1
5 120 1
5 126 1
6 12 -1
6 14 -1
6 28 -1
6 37 1
6 49 1
6 65 1
6 86 1
6 96 -1
6 111 1
6 115 1
6 117 -1
6 123 1
6 134 -1
6 145 -1
7 24 -1
7 48 1
7 51 1
7 61 -1
7 62 -1
7 63 1
7 79 -1
7 85 -1
7 114 -1
7 136 1
7 143 -1
7 145 1
8 9 -1
8 12 1
8 20 -1
8 35 1
8 41 -1
8 47 -1
8 48 1
8 61 -1
8 80 -1
8 87 1
8 101 1
8 105 1
8 107 1
8 111 -1
8 115 -1
8 121 1
8 148 -1
9 14 -1
9 39 1
9 51 1
9 59 1
9 66 1
9 68 1
9 77 1
9 82 -1
9 84 -1
9 92 1
9 96 -1
9 99 -1
9 104 1
9 123 1
9 137 1
9 148 -1
9 150 -1
10 12 1
10 21 -1
10 25 1
10 41 -1
10 71 -1
10 77 -1
10 82 -1
10 93 1
10 105 1
10 128 -1
10 146 -1
10 147 1
10 149 -1
11 18 1
11 40 -1
11 44 -1
11 57 -1
11 63 1
11 68 -1
11 71 1
11 86 -1
11 94 1
11 96 1
11 104 1
11 107 1
11 113 -1
11 120 1
11 135 1
11 136 -1
11 140 1
12 14 -1
12 25 1
12 32 1
12 39 -1
12 59 -1
12 90 -1
12 92 1
12 98 1
12 101 1
12 119 1
12 136 1
12 142 -1
13 35 -1
13 52 1
13 58 -1
13 66 1
13 75 -1
13 81 -1
13 108 1
13 110 1
13 130 -1
13 131 1
13 133 -1
14 21 1
14 36 -1
14 53 1
14 61 1
14 73 1
14 82 1
14 86 -1
14 103 -1
14 105 -1
14 111 -1
14 115 -1
14 124 -1
14 146 -1
15 16 1
15 19 -1
15 33 -1
15 44 -1
15 46 -1
15 50 1
15 61 -1
15 72 1
15 85 1
15 90 -1
15 92 1
15 96 1
15 111 1
15 130 1
15 132 1
15 133 1
15 139 1
15 141 -1
16 22 1
16 35 -1
16 48 -1
16 53 -1
16 58 -1
16 88 -1
16 89 1
16 94 -1
16 103 1
16 104 -1
16 108 -1
16 110 1
16 135 1
16 146 1
17 33 1
17 47 -1
17 50 -1
17 51 -1
17 62 1
17 69 1
17 91 1
17 121 -1
17 126 -1
17 128 -1
17 130 -1
17 137 -1
18 23 1
18 37 1
18 47 1
18 48 1
18 50 1
18 60 -1
18 76 1
18 93 -1
18 102 -1
18 105 -1
18 109 1
18 127 1
18 141 -1
18 150 -1
19 24 -1
19 28 1
19 30 1
19 31 -1
19 32 -1
19 39 1
19 45 -1
19 46 -1
19 61 1
19 69 -1
19 71 -1
19 77 -1
19 97 -1
19 109 1
19 110 1
19 113 -1
19 120 -1
19 126 1
20 28 -1
20 31 1
20 45 -1
20 60 1
20 74 1
20 83 1
20 84 1
20 104 -1
20 113 1
20 117 -1
20 132 1
21 22 -1
21 30 1
21 31 1
21 47 1
21 54 -1
21 80 1
21 84 -1
21 88 1
21 97 -1
21 107 -1
21 111 1
21 113 -1
21 127 -1
21 132 1
21 136 1
21 140 -1
21 147 -1
21 148 1
22 24 1
22 55 1
22 63 -1
22 64 -1
22 70 -1
22 76 1
22 97 1
22 107 -1
22 113 -1
22 120 1
22 129 1
22 135 1
22 143 1
22 144 -1
23 38 1
23 62 1
23 65 1
23 76 1
23 84 -1
23 88 1
23 97 -1
23 101 -1
23 119 1
23 142 -1
23 148 1
24 31 1
24 34 -1
24 35 1
24 37 1
24 59 1
24 83 -1
24 90 -1
24 108 1
24 126 1
24 129 -1
24 130 -1
25 29 -1
25 31 1
25 40 -1
25 52 -1
25 75 -1
25 86 -1
25 88 1
25 91 1
25 97 1
25 123 1
25 138 -1
25 141 -1
26 37 -1
26 49 1
26 66 -1
26 80 -1
26 86 -1
26 111 -1
26 127 -1
26 128 -1
26 131 1
26 135 -1
26 143 -1
27 49 1
27 63 -1
27 71 1
27 97 -1
27 112 -1
27 126 -1
27 132 -1
27 134 -1
27 135 -1
27 142 1
27 146 1
28 30 -1
28 32 1
28 49 -1
28 84 1
28 88 -1
28 92 -1
28 96 -1
28 119 1
28 131 1
28 141 1
28 142 1
28 146 -1
29 35 -1
29 57 -1
29 95 1
29 112 -1
29 114 1
29 115 1
29 119 1
29 137 -1
30 32 1
30 58 -1
30 65 1
30 72 -1
30 74 -1
30 86 1
30 89 1
30 90 -1
30 92 1
30 93 1
30 94 1
30 96 1
30 107 -1
30 110 -1
30 121 -1
30 126 -1
30 136 -1
30 145 -1
30 147 1
31 45 -1
31 47 1
31 57 -1
31 83 1
31 106 -1
31 116 1
31 119 -1
31 120 -1
31 131 1
31 135 1
31 136 1
31 137 -1
31 144 1
31 149 1
32 41 -1
32 62 1
32 75 -1
32 92 1
32 93 1
32 94 -1
32 95 1
32 106 -1
32 112 -1
32 120 1
32 123 -1
32 124 -1
32 128 1
32 129 -1
33 50 1
33 64 -1
33 78 1
33 84 -1
33 88 1
33 91 1
33 105 -1
33 120 -1
33 145 1
34 37 -1
34 44 1
34 57 1
34 62 -1
34 106 -1
34 121 1
34 131 -1
34 133 1
34 135 -1
34 138 1
34 141 1
34 144 -1
35 38 -1
35 39 -1
35 45 1
35 52 -1
35 72 -1
35 101 -1
35 106 -1
35 110 -1
35 111 -1
35 113 1
35 115 -1
35 124 1
35 130 -1
36 39 1
36 48 -1
36 52 1
36 53 -1
36 55 -1
36 81 1
36 97 -1
36 108 1
36 125 -1
36 128 1
36 139 1
37 39 1
37 42 1
37 65 1
37 67 -1
37 74 -1
37 76 -1
37 86 -1
37 91 1
37 119 1
37 130 -1
37 133 -1
37 134 1
37 146 -1
38 41 1
38 51 -1
38 99 1
38 107 1
38 112 1
38 131 1
38 135 1
38 141 -1
38 150 -1
39 48 -1
39 67 -1
39 73 -1
39 90 1
39 121 -1
39 122 -1
39 123 1
39 124 1
39 126 1
39 141 1
39 148 1
40 45 -1
40 53 -1
40 66 1
40 72 1
40 75 1
40 80 -1
40 90 -1
40 97 -1
40 98 1
40 101 1
40 113 -1
40 131 1
41 50 -1
41 52 -1
41 73 -1
41 76 1
41 92 -1
41 107 -1
41 109 1
41 116 1
41 134 -1
41 135 1
42 47 1
42 71 1
42 76 -1
42 78 -1
42 107 -1
42 117 1
42 118 1
42 123 1
42 128 1
42 131 -1
42 133 -1
43 44 -1
43 51 -1
43 77 1
43 84 -1
43 86 -1
43 88 1
43 90 1
43 91 -1
43 120 1
43 139 -1
43 143 -1
43 149 -1
44 55 1
44 78 1
44 85 1
44 107 1
44 111 1
44 114 -1
44 124 1
44 140 -1
45 66 1
45 74 -1
45 114 1
46 49 1
46 54 -1
46 60 1
46 63 1
46 78 -1
46 79 1
46 80 -1
46 90 1
46 131 -1
47 55 1
47 61 -1
47 76 -1
47 110 -1
47 138 -1
47 142 -1
47 150 -1
48 68 1
48 69 1
48 75 1
48 84 1
48 91 -1
48 111 1
48 122 -1
48 133 1
48 136 -1
49 53 1
49 64 1
49 82 1
49 88 -1
49 107 -1
49 120 1
49 128 -1
49 137 1
49 144 -1
49 145 -1
50 64 -1
50 65 1
50 67 1
50 75 1
50 134 -1
50 146 -1
51 52 1
51 75 -1
51 85 1
51 114 -1
51 137 1
51 138 -1
51 143 -1
51 149 -1
52 59 -1
52 70 1
52 78 -1
52 88 -1
52 98 -1
52 108 -1
52 115 -1
52 126 -1
52 135 -1
53 76 -1
53 83 -1
53 85 1
53 95 1
53 129 -1
53 132 -1
53 136 -1
54 70 -1
54 73 1
54 83 -1
54 89 1
54 116 -1
54 140 1
54 146 -1
54 149 1
55 78 -1
55 121 1
55 126 1
55 133 1
55 136 1
55 141 1
55 143 1
55 150 -1
56 59 1
56 66 1
56 106 -1
56 109 1
56 134 1
56 139 1
56 140 -1
57 65 1
57 76 -1
57 82 -1
57 85 -1
57 94 1
57 96 1
57 97 1
57 115 -1
57 140 1
58 61 1
58 67 -1
58 71 1
58 82 -1
58 92 1
58 99 -1
58 103 1
58 104 -1
58 106 1
58 111 1
58 113 1
58 132 -1
59 66 1
59 77 -1
59 95 -1
59 131 1
59 134 1
59 145 1
60 63 1
60 85 1
60 86 -1
60 110 1
60 122 -1
60 123 1
60 143 -1
60 147 1
61 68 -1
61 78 1
61 83 1
61 102 -1
61 106 -1
61 110 1
61 136 -1
61 142 1
62 71 1
62 80 1
62 107 -1
62 128 -1
62 136 -1
62 137 1
62 145 -1
63 71 1
63 78 -1
63 79 -1
63 105 -1
63 108 -1
63 113 1
63 135 -1
64 69 1
64 83 -1
64 86 1
64 113 -1
64 119 1
65 80 -1
65 86 -1
65 94 1
65 112 1
65 124 1
65 136 1
66 76 1
66 98 1
66 118 -1
66 138 1
67 72 -1
67 81 1
67 90 1
67 123 -1
67 132 1
67 135 -1
67 137 1
67 138 -1
68 79 1
68 92 -1
68 94 -1
68 105 1
68 112 -1
68 113 -1
68 117 -1
68 123 -1
68 136 -1
68 142 1
69 87 1
69 91 1
69 106 -1
69 109 -1
69 111 1
69 116 1
69 121 1
69 127 -1
69 142 1
70 73 -1
70 84 1
70 85 -1
70 91 -1
70 102 1
70 122 1
70 134 -1
71 74 1
71 80 1
71 82 -1
71 105 -1
71 107 1
71 111 1
71 122 1
71 139 -1
71 150 -1
72 80 1
72 91 1
72 99 -1
72 111 -1
72 129 -1
72 142 -1
73 82 1
73 84 -1
73 85 -1
73 104 -1
73 131 -1
73 134 -1
73 141 1
74 82 -1
74 102 1
74 110 -1
74 117 -1
74 126 -1
74 134 -1
74 145 1
74 149 1
75 96 1
75 100 1
75 117 1
75 127 1
75 139 1
75 142 1
76 78 -1
76 79 -1
76 100 1
76 104 1
76 105 1
76 140 -1
77 79 1
77 80 1
77 82 -1
77 94 -1
77 96 -1
77 109 1
77 121 -1
77 127 1
77 148 -1
78 111 -1
78 135 1
78 137 1
78 147 1
79 84 1
79 90 1
79 95 -1
79 99 1
79 111 1
79 119 -1
79 126 1
79 128 -1
79 145 1
80 95 -1
80 96 1
80 106 -1
80 109 1
80 111 -1
80 113 1
80 121 -1
80 123 1
80 150 -1
81 109 -1
81 120 1
81 121 -1
81 132 1
81 134 -1
81 136 1
82 107 -1
82 108 -1
82 116 1
82 147 -1
83 91 1
83 100 -1
83 109 -1
83 116 1
83 126 -1
83 136 -1
83 138 -1
84 88 1
84 104 1
84 116 1
84 137 1
84 138 1
84 139 -1
84 149 -1
85 95 -1
85 100 1
85 105 -1
85 108 -1
85 109 -1
85 122 1
85 142 1
86 110 -1
86 119 1
86 132 1
87 91 1
87 106 -1
87 112 1
87 118 1
87 122 -1
87 130 -1
87 132 -1
88 96 1
88 132 1
88 143 1
89 94 -1
89 95 1
89 118 1
89 121 -1
89 123 1
90 99 -1
90 101 1
90 109 1
90 120 -1
90 132 -1
90 139 1
90 142 -1
90 150 -1
91 95 -1
91 96 -1
91 99 -1
91 111 -1
91 140 1
91 142 -1
91 144 1
91 148 1
92 104 1
92 117 -1
92 127 -1
92 132 -1
92 147 1
93 105 1
93 107 -1
93 110 1
93 115 -1
93 116 -1
93 122 -1
93 125 -1
93 126 1
93 135 1
93 142 1
93 149 1
94 96 -1
94 102 -1
94 106 -1
94 108 -1
94 111 1
94 116 1
94 121 -1
94 122 -1
94 135 1
94 141 1
94 146 -1
94 149 1
95 105 -1
95 117 1
95 124 1
95 140 -1
95 142 -1
95 150 -1
96 104 1
96 119 1
96 124 1
96 125 1
96 128 1
96 135 -1
96 143 -1
97 106 1
98 107 1
98 111 -1
98 115 -1
98 123 1
98 132 -1
98 145 1
99 115 1
99 119 -1
99 128 1
99 135 1
99 138 -1
99 149 1
100 104 1
100 127 -1
100 141 -1
100 148 -1
100 149 -1
101 103 1
101 104 1
101 119 -1
101 121 -1
101 126 -1
101 143 1
101 146 1
102 133 1
102 138 1
103 105 1
103 107 1
103 116 1
103 120 -1
103 130 1
103 131 -1
104 121 -1
104 131 -1
104 134 -1
104 136 1
104 141 1
104 144 1
104 147 -1
105 106 -1
105 120 1
105 123 -1
105 133 1
105 135 -1
105 138 1
106 109 1
106 137 1
106 138 -1
106 140 -1
106 141 1
107 132 1
108 109 -1
108 123 -1
108 132 1
108 133 -1
109 117 1
109 127 1
110 113 1
110 129 -1
110 130 -1
110 139 -1
110 140 1
110 145 -1
111 133 1
111 136 -1
111 139 1
111 143 -1
111 147 1
112 114 1
112 122 -1
112 127 1
112 143 1
112 146 1
113 115 1
113 118 1
113 123 1
113 129 1
113 134 -1
114 132 1
115 122 -1
115 125 1
115 131 -1
115 136 -1
115 138 -1
115 141 -1
116 120 -1
116 130 -1
116 134 -1
116 149 1
117 125 -1
117 139 -1
117 145 -1
118 119 -1
118 135 1
118 146 -1
119 131 1
120 123 1
120 124 1
120 131 1
120 133 1
120 143 -1
120 145 -1
121 131 1
121 132 -1
121 133 -1
121 137 1
121 143 -1
121 145 1
121 148 1
122 127 1
122 133 1
122 142 -1
122 150 -1
123 126 -1
123 134 -1
123 135 -1
123 139 1
124 127 -1
124 132 -1
124 134 -1
125 139 1
126 135 -1
127 134 -1
127 144 -1
128 141 -1
128 147 1
129 133 -1
129 141 -1
129 150 1
131 132 -1
131 140 -1
131 143 1
132 140 1
132 147 1
132 150 1
133 134 1
133 145 -1
134 137 1
134 141 -1
134 148 1
136 138 1
137 147 1
137 149 1
138 139 1
138 150 -1
139 142 1
140 143 -1
142 148 1
145 146 1
